<number of tasks>
50

<cycle time>
1000

<order strength>
0.602


<task times>
1 142
2 241
3 125
4 26
5 301
6 95
7 199
8 266
9 115
10 77
11 167
12 93
13 189
14 58
15 75
16 218
17 35
18 131
19 122
20 176
21 137
22 109
23 139
24 140
25 280
26 61
27 120
28 50
29 75
30 194
31 174
32 179
33 102
34 91
35 81
36 206
37 234
38 193
39 107
40 190
41 98
42 286
43 126
44 92
45 191
46 197
47 307
48 99
49 37
50 128

<precedence relations>
1,27
2,33
2,45
3,8
3,10
3,11
3,14
4,9
4,11
5,8
5,9
5,10
5,11
6,15
6,27
7,9
8,12
8,24
9,12
9,14
9,16
10,13
10,24
11,13
11,15
11,16
12,17
13,22
14,24
14,29
14,36
14,50
15,17
15,19
15,20
15,35
16,17
16,18
16,21
17,23
17,26
18,24
18,25
18,26
18,28
19,47
20,23
20,33
20,37
21,24
21,28
22,25
22,27
23,38
24,31
25,36
26,29
26,36
26,50
27,29
27,30
28,29
28,30
29,31
29,32
29,33
30,34
30,35
32,37
32,43
33,39
35,36
35,38
36,47
37,40
38,41
39,40
39,48
40,44
40,46
41,42
41,43
41,44
41,45
41,46
45,48
45,50
46,47
46,49

<end>
